Route #1: 38 47 26 48 96 64 34
Route #2: 25 65 78 42 28
Route #3: 4 13 74
Route #4: 15 22 41 20
Route #5: 14 49 6 37 87
Route #6: 59 60 82
Route #7: 30 85 11 79
Route #8: 57 72 36 29 43 45 2 7
Route #9: 5 12 58
Route #10: 54 70 1
Route #11: 52 91 50
Route #12: 24 95 73 53 33 32
Route #13: 31 46 35
Route #14: 39 10 18
Route #15: 68 90 84 66
Route #16: 75 93
Route #17: 44 67 88 40
Route #18: 3 77 63
Route #19: 8 17
Route #20: 83 51 81
Route #21: 86 9 92
Route #22: 71 62 99 98 89
Route #23: 69 16 55 76
Route #24: 27 97 19
Route #25: 21 56 94 80
Route #26: 23 61 100
Cost 27591.0000
Time 16.0006